param basemva := 100;

param: BUS:	bus_type	bus_pd	bus_qd	bus_shunt_g	bus_shunt_b	bus_area	bus_vm0	bus_va0	bus_basekv	bus_zone	bus_vmax	bus_vmin:= 
       1.00000000	       3.00000000	       0.00000000	       0.00000000	       0.00000000	       0.00000000	       1.00000000	       1.00000000	       0.00000000	     345.00000000	       1.00000000	       1.10000000	       0.90000000	
       2.00000000	       2.00000000	       0.00000000	       0.00000000	       0.00000000	       0.00000000	       1.00000000	       1.00000000	       9.66874113	     345.00000000	       1.00000000	       1.10000000	       0.90000000	
       3.00000000	       2.00000000	       0.00000000	       0.00000000	       0.00000000	       0.00000000	       1.00000000	       1.00000000	       4.77107324	     345.00000000	       1.00000000	       1.10000000	       0.90000000	
       4.00000000	       1.00000000	       0.00000000	       0.00000000	       0.00000000	       0.00000000	       1.00000000	       0.98700685	      -2.40664392	     345.00000000	       1.00000000	       1.10000000	       0.90000000	
       5.00000000	       1.00000000	      90.00000000	      30.00000000	       0.00000000	       0.00000000	       1.00000000	       0.97547218	      -4.01726433	     345.00000000	       1.00000000	       1.10000000	       0.90000000	
       6.00000000	       1.00000000	       0.00000000	       0.00000000	       0.00000000	       0.00000000	       1.00000000	       1.00337544	       1.92560169	     345.00000000	       1.00000000	       1.10000000	       0.90000000	
       7.00000000	       1.00000000	     100.00000000	      35.00000000	       0.00000000	       0.00000000	       1.00000000	       0.98564488	       0.62154456	     345.00000000	       1.00000000	       1.10000000	       0.90000000	
       8.00000000	       1.00000000	       0.00000000	       0.00000000	       0.00000000	       0.00000000	       1.00000000	       0.99618525	       3.79912019	     345.00000000	       1.00000000	       1.10000000	       0.90000000	
       9.00000000	       1.00000000	     125.00000000	      50.00000000	       0.00000000	       0.00000000	       1.00000000	       0.95762104	      -4.34993358	     345.00000000	       1.00000000	       1.10000000	       0.90000000	
;


param: 		BRANCH:	branch_r	branch_x	branch_c	branch_rate1	branch_rate2	branch_rate3	branch_nontap	branch_nonshift	branch_status	branch_angle0	branch_angle2:=
       1.00000000	       1.00000000	       4.00000000	       0.00000000	       0.05760000	       0.00000000	     250.00000000	     250.00000000	     250.00000000	       0.00000000	       0.00000000	       1.00000000	    -360.00000000	     360.00000000	
       2.00000000	       4.00000000	       5.00000000	       0.01700000	       0.09200000	       0.15800000	     250.00000000	     250.00000000	     250.00000000	       0.00000000	       0.00000000	       1.00000000	    -360.00000000	     360.00000000	
       3.00000000	       5.00000000	       6.00000000	       0.03900000	       0.17000000	       0.35800000	     150.00000000	     150.00000000	     150.00000000	       0.00000000	       0.00000000	       1.00000000	    -360.00000000	     360.00000000	
       4.00000000	       3.00000000	       6.00000000	       0.00000000	       0.05860000	       0.00000000	     300.00000000	     300.00000000	     300.00000000	       0.00000000	       0.00000000	       1.00000000	    -360.00000000	     360.00000000	
       5.00000000	       6.00000000	       7.00000000	       0.01190000	       0.10080000	       0.20900000	     150.00000000	     150.00000000	     150.00000000	       0.00000000	       0.00000000	       1.00000000	    -360.00000000	     360.00000000	
       6.00000000	       7.00000000	       8.00000000	       0.00850000	       0.07200000	       0.14900000	     250.00000000	     250.00000000	     250.00000000	       0.00000000	       0.00000000	       1.00000000	    -360.00000000	     360.00000000	
       7.00000000	       8.00000000	       2.00000000	       0.00000000	       0.06250000	       0.00000000	     250.00000000	     250.00000000	     250.00000000	       0.00000000	       0.00000000	       1.00000000	    -360.00000000	     360.00000000	
    #   8.00000000	       8.00000000	       9.00000000	       0.03200000	       0.16100000	       0.30600000	     250.00000000	     250.00000000	     250.00000000	       0.00000000	       0.00000000	       1.00000000	    -360.00000000	     360.00000000	
       9.00000000	       9.00000000	       4.00000000	       0.01000000	       0.08500000	       0.17600000	     250.00000000	     250.00000000	     250.00000000	       0.00000000	       0.00000000	       1.00000000	    -360.00000000	     360.00000000	
;


param:	TRANS:	trans_r	trans_x	trans_c	trans_rate1	trans_rate2	trans_rate3	trans_tap0	trans_shift0	trans_status	trans_angle0	trans_angle2	trans_tap_min	trans_tap_max	trans_tap_step	trans_shift_min	trans_shift_max:=
;


param: 	TGEN:	tgen_p0	tgen_q0	tgen_q_max	tgen_q_min	tgen_v0	tgen_base	tgen_status	tgen_p_max	tgen_p_min	tgen_Pc1	tgen_Pc2	tgen_Qc1min	tgen_Qc1max	tgen_Qc2min	tgen_Qc2max	tgen_ramp_agc	tgen_ramp_10	tgen_ramp_30	tgen_ramp_q	tgen_apf	tgen_fuel_a	tgen_fuel_b	tgen_fuel_c:=
       1.00000000	       1.00000000	      64.00000000	       0.00000000	     300.00000000	    -300.00000000	       1.00000000	     100.00000000	       1.00000000	      196.00000000	      0.00000000	       0.00000000	       0.00000000	       0.00000000	       0.00000000	       0.00000000	       0.00000000	       0.00000000	       0.00000000	       0.00000000	       0.00000000	       0.00000000	       0.11000000	       5.00000000	     150.00000000	
       2.00000000	       2.00000000	      83.00000000	       0.00000000	     300.00000000	    -300.00000000	       1.00000000	     100.00000000	       1.00000000	      1135.00000000	      0.00000000	       0.00000000	       0.00000000	       0.00000000	       0.00000000	       0.00000000	       0.00000000	       0.00000000	       0.00000000	       0.00000000	       0.00000000	       0.00000000	       0.08500000	       1.20000000	     600.00000000	
       3.00000000	       3.00000000	      85.00000000	       0.00000000	     300.00000000	    -300.00000000	       1.00000000	     100.00000000	       1.00000000	      191.00000000	      0.00000000	       0.00000000	       0.00000000	       0.00000000	       0.00000000	       0.00000000	       0.00000000	       0.00000000	       0.00000000	       0.00000000	       0.00000000	       0.00000000	       0.12250000	       1.00000000	     335.00000000	
       4.00000000	       5.00000000	      85.00000000	       0.00000000	     300.00000000	    -300.00000000	       1.00000000	     100.00000000	       1.00000000	      191.00000000	      0.00000000	       0.00000000	       0.00000000	       0.00000000	       0.00000000	       0.00000000	       0.00000000	       0.00000000	       0.00000000	       0.00000000	       0.00000000	       0.00000000	       0.09250000	       1.00000000	     235.00000000	
;


param: FACTS: facts_type facts_status facts_min facts_max :=
;


param: SWSHUNT: shunt_type shunt_b0 shunt_b_min shunt_b_max shunt_step:=
;


